200 1957
1 4 1
1 29 1
1 43 1
1 62 1
1 70 1
1 95 1
1 97 1
1 107 1
1 162 1
1 180 1
1 195 1
2 19 1
2 40 1
2 42 1
2 62 1
2 74 1
2 77 1
2 80 1
2 86 1
2 88 1
2 98 1
2 107 1
2 112 1
2 114 1
2 115 1
2 124 1
2 129 1
2 134 1
2 150 1
2 154 1
2 159 1
2 163 1
2 164 1
2 177 1
2 187 1
2 198 1
3 11 1
3 24 1
3 36 1
3 52 1
3 80 1
3 102 1
3 120 1
3 134 1
3 141 1
3 150 1
3 151 1
3 169 1
3 180 1
3 182 1
3 190 1
4 19 1
4 20 1
4 23 1
4 26 1
4 30 1
4 44 1
4 48 1
4 56 1
4 59 1
4 80 1
4 83 1
4 89 1
4 93 1
4 97 1
4 123 1
4 127 1
4 137 1
4 155 1
4 170 1
4 192 1
5 8 1
5 9 1
5 10 1
5 16 1
5 25 1
5 35 1
5 44 1
5 49 1
5 51 1
5 65 1
5 80 1
5 89 1
5 96 1
5 113 1
5 128 1
5 132 1
5 133 1
5 141 1
5 147 1
5 149 1
5 153 1
5 187 1
6 11 1
6 26 1
6 46 1
6 54 1
6 57 1
6 59 1
6 86 1
6 89 1
6 99 1
6 111 1
6 118 1
6 133 1
6 134 1
6 148 1
6 174 1
6 191 1
6 192 1
7 13 1
7 34 1
7 36 1
7 45 1
7 55 1
7 65 1
7 80 1
7 83 1
7 97 1
7 111 1
7 114 1
7 132 1
7 147 1
7 159 1
7 186 1
7 198 1
7 200 1
8 10 1
8 18 1
8 23 1
8 26 1
8 28 1
8 33 1
8 38 1
8 49 1
8 69 1
8 73 1
8 80 1
8 100 1
8 104 1
8 106 1
8 113 1
8 119 1
8 120 1
8 126 1
8 141 1
8 143 1
8 151 1
8 154 1
8 200 1
9 12 1
9 30 1
9 36 1
9 39 1
9 47 1
9 50 1
9 62 1
9 65 1
9 131 1
9 133 1
9 148 1
9 156 1
9 159 1
9 167 1
9 171 1
9 179 1
9 182 1
9 189 1
9 194 1
9 197 1
10 12 1
10 15 1
10 20 1
10 21 1
10 25 1
10 26 1
10 46 1
10 48 1
10 54 1
10 69 1
10 82 1
10 92 1
10 128 1
10 134 1
10 144 1
10 155 1
10 162 1
10 170 1
10 177 1
11 24 1
11 40 1
11 53 1
11 58 1
11 91 1
11 95 1
11 101 1
11 116 1
11 121 1
11 124 1
11 132 1
11 145 1
11 158 1
11 174 1
11 185 1
12 17 1
12 21 1
12 35 1
12 76 1
12 116 1
12 121 1
12 137 1
12 149 1
12 177 1
12 178 1
12 183 1
12 184 1
13 17 1
13 22 1
13 26 1
13 36 1
13 59 1
13 76 1
13 78 1
13 122 1
13 126 1
13 131 1
13 134 1
13 143 1
13 148 1
13 149 1
13 151 1
13 159 1
13 179 1
13 184 1
14 21 1
14 23 1
14 29 1
14 35 1
14 37 1
14 39 1
14 41 1
14 49 1
14 51 1
14 53 1
14 77 1
14 86 1
14 93 1
14 101 1
14 114 1
14 118 1
14 121 1
14 123 1
14 124 1
14 125 1
14 140 1
14 148 1
14 150 1
14 166 1
14 176 1
14 181 1
14 190 1
15 16 1
15 18 1
15 24 1
15 48 1
15 53 1
15 59 1
15 64 1
15 79 1
15 80 1
15 81 1
15 95 1
15 104 1
15 113 1
15 150 1
15 165 1
15 180 1
15 191 1
16 60 1
16 74 1
16 87 1
16 101 1
16 103 1
16 122 1
16 124 1
16 141 1
16 164 1
16 168 1
16 181 1
17 21 1
17 25 1
17 33 1
17 41 1
17 55 1
17 69 1
17 76 1
17 87 1
17 95 1
17 100 1
17 134 1
17 136 1
17 158 1
17 161 1
17 181 1
18 46 1
18 62 1
18 64 1
18 74 1
18 76 1
18 78 1
18 79 1
18 81 1
18 82 1
18 96 1
18 97 1
18 101 1
18 103 1
18 107 1
18 123 1
18 130 1
18 143 1
18 154 1
18 160 1
18 177 1
18 181 1
18 193 1
18 194 1
18 198 1
19 22 1
19 26 1
19 27 1
19 48 1
19 98 1
19 100 1
19 105 1
19 120 1
19 121 1
19 124 1
19 148 1
19 154 1
19 167 1
19 168 1
19 172 1
19 180 1
19 191 1
19 193 1
19 198 1
20 26 1
20 35 1
20 44 1
20 49 1
20 51 1
20 54 1
20 56 1
20 64 1
20 68 1
20 76 1
20 81 1
20 83 1
20 84 1
20 90 1
20 101 1
20 108 1
20 118 1
20 126 1
20 131 1
20 143 1
20 149 1
20 169 1
20 182 1
21 31 1
21 35 1
21 37 1
21 45 1
21 65 1
21 91 1
21 111 1
21 112 1
21 116 1
21 123 1
21 144 1
21 145 1
21 152 1
21 157 1
21 162 1
21 179 1
21 183 1
21 197 1
22 39 1
22 110 1
22 117 1
22 118 1
22 121 1
22 134 1
22 145 1
22 153 1
22 174 1
22 180 1
22 196 1
23 32 1
23 34 1
23 38 1
23 45 1
23 61 1
23 63 1
23 66 1
23 70 1
23 91 1
23 98 1
23 103 1
23 104 1
23 111 1
23 134 1
23 135 1
23 146 1
23 149 1
23 159 1
23 160 1
23 163 1
23 181 1
23 200 1
24 27 1
24 32 1
24 33 1
24 47 1
24 48 1
24 49 1
24 56 1
24 65 1
24 67 1
24 76 1
24 101 1
24 127 1
24 136 1
24 138 1
24 143 1
24 151 1
24 163 1
24 183 1
24 184 1
25 28 1
25 40 1
25 65 1
25 71 1
25 81 1
25 86 1
25 97 1
25 105 1
25 117 1
25 119 1
25 134 1
25 144 1
25 147 1
25 161 1
25 173 1
25 179 1
25 180 1
25 187 1
25 194 1
25 198 1
26 37 1
26 42 1
26 43 1
26 47 1
26 51 1
26 52 1
26 56 1
26 66 1
26 73 1
26 88 1
26 111 1
26 117 1
26 134 1
26 135 1
26 162 1
26 165 1
26 166 1
26 177 1
26 183 1
27 28 1
27 50 1
27 66 1
27 68 1
27 80 1
27 83 1
27 86 1
27 90 1
27 102 1
27 108 1
27 139 1
27 150 1
27 158 1
27 163 1
27 194 1
28 34 1
28 50 1
28 61 1
28 64 1
28 93 1
28 102 1
28 104 1
28 109 1
28 120 1
28 124 1
28 132 1
28 134 1
28 136 1
28 154 1
28 161 1
28 169 1
28 171 1
28 184 1
28 185 1
28 196 1
29 34 1
29 48 1
29 61 1
29 64 1
29 74 1
29 85 1
29 96 1
29 120 1
29 148 1
29 152 1
29 154 1
29 156 1
29 163 1
29 168 1
29 174 1
29 191 1
29 196 1
30 49 1
30 67 1
30 78 1
30 85 1
30 87 1
30 88 1
30 99 1
30 107 1
30 122 1
30 142 1
30 155 1
30 156 1
30 181 1
30 183 1
30 188 1
31 46 1
31 62 1
31 63 1
31 80 1
31 94 1
31 119 1
31 131 1
31 132 1
31 133 1
31 136 1
31 146 1
31 166 1
31 169 1
31 181 1
31 191 1
32 45 1
32 46 1
32 61 1
32 64 1
32 96 1
32 98 1
32 101 1
32 110 1
32 142 1
32 146 1
32 149 1
32 153 1
32 164 1
32 171 1
32 178 1
32 194 1
32 196 1
33 39 1
33 53 1
33 66 1
33 77 1
33 86 1
33 89 1
33 91 1
33 96 1
33 110 1
33 122 1
33 129 1
33 135 1
33 167 1
33 179 1
33 182 1
33 192 1
34 56 1
34 70 1
34 77 1
34 80 1
34 83 1
34 84 1
34 104 1
34 121 1
34 141 1
34 143 1
34 162 1
34 174 1
34 179 1
34 187 1
34 189 1
35 47 1
35 58 1
35 64 1
35 70 1
35 78 1
35 81 1
35 140 1
35 145 1
35 158 1
35 195 1
35 199 1
36 40 1
36 52 1
36 53 1
36 57 1
36 66 1
36 93 1
36 103 1
36 111 1
36 114 1
36 117 1
36 123 1
36 129 1
36 144 1
36 152 1
36 155 1
36 175 1
36 188 1
37 38 1
37 39 1
37 60 1
37 67 1
37 76 1
37 83 1
37 97 1
37 98 1
37 102 1
37 103 1
37 107 1
37 121 1
37 155 1
37 184 1
38 61 1
38 74 1
38 78 1
38 92 1
38 93 1
38 100 1
38 114 1
38 135 1
38 142 1
38 152 1
38 170 1
38 183 1
38 184 1
38 187 1
38 191 1
38 196 1
38 199 1
39 46 1
39 53 1
39 87 1
39 89 1
39 116 1
39 129 1
39 154 1
39 162 1
39 168 1
39 170 1
39 171 1
39 186 1
39 196 1
40 52 1
40 74 1
40 77 1
40 84 1
40 86 1
40 102 1
40 112 1
40 144 1
40 147 1
40 148 1
40 154 1
40 190 1
40 198 1
41 63 1
41 114 1
41 115 1
41 120 1
41 135 1
41 158 1
41 167 1
41 172 1
41 180 1
41 181 1
42 64 1
42 74 1
42 98 1
42 107 1
42 108 1
42 110 1
42 117 1
42 128 1
42 137 1
42 153 1
42 175 1
42 184 1
42 193 1
42 196 1
43 55 1
43 63 1
43 64 1
43 78 1
43 83 1
43 84 1
43 92 1
43 94 1
43 100 1
43 115 1
43 129 1
43 144 1
43 145 1
43 151 1
43 171 1
43 192 1
44 45 1
44 56 1
44 59 1
44 68 1
44 73 1
44 96 1
44 155 1
44 157 1
44 158 1
44 161 1
44 163 1
44 164 1
44 169 1
44 174 1
44 183 1
44 184 1
44 190 1
44 194 1
45 47 1
45 57 1
45 70 1
45 74 1
45 93 1
45 103 1
45 112 1
45 133 1
45 149 1
45 163 1
45 170 1
45 175 1
45 185 1
45 196 1
45 199 1
46 57 1
46 63 1
46 76 1
46 82 1
46 88 1
46 95 1
46 96 1
46 114 1
46 120 1
46 123 1
46 124 1
46 128 1
46 129 1
46 131 1
46 133 1
46 138 1
46 146 1
46 168 1
46 172 1
46 183 1
47 60 1
47 61 1
47 62 1
47 64 1
47 67 1
47 100 1
47 101 1
47 122 1
47 128 1
47 150 1
47 153 1
47 163 1
47 166 1
47 172 1
47 175 1
47 184 1
47 189 1
47 196 1
48 53 1
48 59 1
48 60 1
48 71 1
48 112 1
48 129 1
48 131 1
48 136 1
48 140 1
48 144 1
48 149 1
48 191 1
48 200 1
49 52 1
49 54 1
49 56 1
49 62 1
49 71 1
49 86 1
49 101 1
49 127 1
49 135 1
49 162 1
49 165 1
49 177 1
49 187 1
49 189 1
50 51 1
50 57 1
50 70 1
50 77 1
50 106 1
50 119 1
50 121 1
50 122 1
50 124 1
50 144 1
50 152 1
50 167 1
50 176 1
50 188 1
50 194 1
50 195 1
50 198 1
51 58 1
51 62 1
51 64 1
51 76 1
51 84 1
51 88 1
51 91 1
51 108 1
51 111 1
51 114 1
51 115 1
51 119 1
51 130 1
51 140 1
51 156 1
51 160 1
51 176 1
51 182 1
52 107 1
52 108 1
52 113 1
52 120 1
52 147 1
52 148 1
52 181 1
52 184 1
52 189 1
53 55 1
53 71 1
53 80 1
53 84 1
53 85 1
53 87 1
53 106 1
53 132 1
53 145 1
53 148 1
53 197 1
53 198 1
54 56 1
54 57 1
54 60 1
54 63 1
54 91 1
54 116 1
54 118 1
54 122 1
54 123 1
54 128 1
54 130 1
54 132 1
54 137 1
54 156 1
54 163 1
54 165 1
54 174 1
54 186 1
54 195 1
54 200 1
55 61 1
55 78 1
55 87 1
55 93 1
55 96 1
55 100 1
55 107 1
55 126 1
55 133 1
55 144 1
55 156 1
55 161 1
55 172 1
55 174 1
56 57 1
56 60 1
56 64 1
56 86 1
56 94 1
56 103 1
56 105 1
56 106 1
56 116 1
56 128 1
56 130 1
56 143 1
56 148 1
56 155 1
56 161 1
56 162 1
56 194 1
57 61 1
57 62 1
57 66 1
57 84 1
57 97 1
57 101 1
57 110 1
57 111 1
57 148 1
57 164 1
58 60 1
58 63 1
58 65 1
58 69 1
58 74 1
58 78 1
58 79 1
58 91 1
58 93 1
58 103 1
58 116 1
58 131 1
58 151 1
58 153 1
58 161 1
58 163 1
58 165 1
58 168 1
58 185 1
58 188 1
58 190 1
58 195 1
59 68 1
59 70 1
59 102 1
59 105 1
59 110 1
59 119 1
59 124 1
59 126 1
59 129 1
59 139 1
59 144 1
59 151 1
59 185 1
59 186 1
59 188 1
59 199 1
60 61 1
60 63 1
60 82 1
60 84 1
60 90 1
60 94 1
60 95 1
60 98 1
60 104 1
60 106 1
60 122 1
60 128 1
60 130 1
60 144 1
60 152 1
60 156 1
60 163 1
60 177 1
60 185 1
61 64 1
61 76 1
61 95 1
61 98 1
61 100 1
61 105 1
61 112 1
61 122 1
61 123 1
61 126 1
61 136 1
61 138 1
61 149 1
61 157 1
61 160 1
61 162 1
61 172 1
61 191 1
61 195 1
61 196 1
62 78 1
62 85 1
62 141 1
62 142 1
62 143 1
62 159 1
62 195 1
63 73 1
63 96 1
63 137 1
63 146 1
63 154 1
63 156 1
63 187 1
63 188 1
64 80 1
64 83 1
64 89 1
64 90 1
64 117 1
64 167 1
64 171 1
64 185 1
64 187 1
65 74 1
65 78 1
65 85 1
65 97 1
65 99 1
65 107 1
65 140 1
65 141 1
65 144 1
65 145 1
65 150 1
65 151 1
65 161 1
65 165 1
65 176 1
66 111 1
66 123 1
66 131 1
66 132 1
66 133 1
66 140 1
66 156 1
66 172 1
66 173 1
67 68 1
67 75 1
67 83 1
67 84 1
67 106 1
67 120 1
67 132 1
67 133 1
67 139 1
67 173 1
67 179 1
67 189 1
67 198 1
68 90 1
68 92 1
68 137 1
68 146 1
68 152 1
68 158 1
68 162 1
68 172 1
68 175 1
68 195 1
69 97 1
69 103 1
69 110 1
69 120 1
69 140 1
69 150 1
69 154 1
69 161 1
69 164 1
69 165 1
69 171 1
69 172 1
69 178 1
69 181 1
69 185 1
69 199 1
70 75 1
70 81 1
70 83 1
70 95 1
70 124 1
70 134 1
70 140 1
70 141 1
70 142 1
70 172 1
70 176 1
70 200 1
71 75 1
71 77 1
71 84 1
71 92 1
71 105 1
71 109 1
71 112 1
71 118 1
71 157 1
71 179 1
71 186 1
71 191 1
72 77 1
72 84 1
72 90 1
72 94 1
72 97 1
72 103 1
72 108 1
72 112 1
72 117 1
72 150 1
72 180 1
72 184 1
72 187 1
73 74 1
73 77 1
73 85 1
73 91 1
73 93 1
73 111 1
73 120 1
73 121 1
73 143 1
73 147 1
73 151 1
73 156 1
73 164 1
73 170 1
73 175 1
73 176 1
73 193 1
73 200 1
74 76 1
74 77 1
74 79 1
74 81 1
74 116 1
74 124 1
74 134 1
74 143 1
74 145 1
74 149 1
74 154 1
74 156 1
74 158 1
74 167 1
74 180 1
74 189 1
74 190 1
74 200 1
75 103 1
75 113 1
75 116 1
75 119 1
75 120 1
75 130 1
75 139 1
75 149 1
75 171 1
75 174 1
75 183 1
75 185 1
75 186 1
76 82 1
76 102 1
76 108 1
76 113 1
76 139 1
76 142 1
76 150 1
76 158 1
76 161 1
76 167 1
76 168 1
76 169 1
76 175 1
76 179 1
76 187 1
76 190 1
77 88 1
77 94 1
77 96 1
77 106 1
77 129 1
77 146 1
77 148 1
77 151 1
77 160 1
77 173 1
77 181 1
77 187 1
78 121 1
78 140 1
78 149 1
78 156 1
78 160 1
78 176 1
78 183 1
79 91 1
79 111 1
79 125 1
79 126 1
79 134 1
79 146 1
79 153 1
79 188 1
80 103 1
80 116 1
80 117 1
80 133 1
80 152 1
80 155 1
80 167 1
80 168 1
80 171 1
80 179 1
80 185 1
81 82 1
81 85 1
81 117 1
81 119 1
81 166 1
81 186 1
81 191 1
81 195 1
81 198 1
81 199 1
82 88 1
82 89 1
82 100 1
82 110 1
82 117 1
82 133 1
82 138 1
82 171 1
82 184 1
82 191 1
82 196 1
83 104 1
83 109 1
83 140 1
83 143 1
83 150 1
83 171 1
83 178 1
84 92 1
84 97 1
84 106 1
84 111 1
84 117 1
84 119 1
84 121 1
84 138 1
84 146 1
84 167 1
84 180 1
84 183 1
85 95 1
85 99 1
85 113 1
85 125 1
85 126 1
85 128 1
85 133 1
85 149 1
85 151 1
85 155 1
85 156 1
85 157 1
85 161 1
85 166 1
85 176 1
85 181 1
85 193 1
86 114 1
86 134 1
86 142 1
86 156 1
86 168 1
86 181 1
86 190 1
86 195 1
87 90 1
87 117 1
87 120 1
87 121 1
87 130 1
87 133 1
87 136 1
87 142 1
87 149 1
87 157 1
87 175 1
88 96 1
88 100 1
88 119 1
88 120 1
88 125 1
88 136 1
88 150 1
88 162 1
88 168 1
88 176 1
88 182 1
88 186 1
88 198 1
89 92 1
89 103 1
89 105 1
89 112 1
89 135 1
89 145 1
89 156 1
89 163 1
89 174 1
89 185 1
89 197 1
90 178 1
90 184 1
90 186 1
90 198 1
91 93 1
91 105 1
91 114 1
91 148 1
91 149 1
91 158 1
91 196 1
91 198 1
92 102 1
92 106 1
92 113 1
92 115 1
92 130 1
92 149 1
92 164 1
92 189 1
92 195 1
93 110 1
93 112 1
93 119 1
93 128 1
93 132 1
93 133 1
93 198 1
94 97 1
94 105 1
94 109 1
94 110 1
94 117 1
94 138 1
94 139 1
94 142 1
94 150 1
94 161 1
94 162 1
94 166 1
94 171 1
94 193 1
94 200 1
95 115 1
95 133 1
95 149 1
95 152 1
95 193 1
95 195 1
95 199 1
96 97 1
96 115 1
96 131 1
96 150 1
96 152 1
96 166 1
96 171 1
97 98 1
97 103 1
97 126 1
97 133 1
97 142 1
97 169 1
97 171 1
97 176 1
97 178 1
97 179 1
97 187 1
97 198 1
97 200 1
98 101 1
98 104 1
98 117 1
98 153 1
98 155 1
98 157 1
98 162 1
98 189 1
98 191 1
98 192 1
99 120 1
99 127 1
99 133 1
99 143 1
99 160 1
99 166 1
99 173 1
99 178 1
99 185 1
99 191 1
99 194 1
99 197 1
99 199 1
100 101 1
100 104 1
100 106 1
100 108 1
100 127 1
100 131 1
100 151 1
100 163 1
100 172 1
100 180 1
100 182 1
100 188 1
100 190 1
100 197 1
101 113 1
101 115 1
101 118 1
101 120 1
101 129 1
101 134 1
101 140 1
101 196 1
102 104 1
102 119 1
102 127 1
102 130 1
102 136 1
102 137 1
102 139 1
102 147 1
102 151 1
102 167 1
102 182 1
102 184 1
103 132 1
103 140 1
103 141 1
103 146 1
103 165 1
103 174 1
104 121 1
104 129 1
104 131 1
104 147 1
104 149 1
104 187 1
104 191 1
104 196 1
105 111 1
105 113 1
105 136 1
105 143 1
105 161 1
105 177 1
106 108 1
106 136 1
106 143 1
106 157 1
106 159 1
106 168 1
106 180 1
106 187 1
106 195 1
106 198 1
107 108 1
107 124 1
107 140 1
107 152 1
107 158 1
107 160 1
107 178 1
107 186 1
108 114 1
108 133 1
108 139 1
108 158 1
108 163 1
108 165 1
108 166 1
108 167 1
108 197 1
109 132 1
109 145 1
109 149 1
109 162 1
109 166 1
109 173 1
109 187 1
110 112 1
110 117 1
110 145 1
110 151 1
110 155 1
110 160 1
110 163 1
110 169 1
110 187 1
111 112 1
111 138 1
111 141 1
111 149 1
111 175 1
111 176 1
111 178 1
111 181 1
111 192 1
111 197 1
111 199 1
112 116 1
112 118 1
112 122 1
112 148 1
112 169 1
112 171 1
112 178 1
112 182 1
112 197 1
112 200 1
113 115 1
113 129 1
113 130 1
113 149 1
113 169 1
113 173 1
113 175 1
113 198 1
113 200 1
114 115 1
114 116 1
114 129 1
114 130 1
114 138 1
114 144 1
114 145 1
114 154 1
114 159 1
114 160 1
114 161 1
114 172 1
114 181 1
114 182 1
114 199 1
115 136 1
115 138 1
115 148 1
115 149 1
115 152 1
115 167 1
115 173 1
115 174 1
115 192 1
115 195 1
116 120 1
116 121 1
116 125 1
116 136 1
116 142 1
116 152 1
116 168 1
116 185 1
116 191 1
117 122 1
117 127 1
117 137 1
117 141 1
117 144 1
117 147 1
117 154 1
117 180 1
117 200 1
118 127 1
118 133 1
118 147 1
118 151 1
118 153 1
118 173 1
118 186 1
118 200 1
119 121 1
119 124 1
119 135 1
119 138 1
119 154 1
119 166 1
119 185 1
119 195 1
119 198 1
120 123 1
120 153 1
120 156 1
120 194 1
121 145 1
121 150 1
121 162 1
121 165 1
121 167 1
121 176 1
121 182 1
121 184 1
121 185 1
121 191 1
121 193 1
122 128 1
122 129 1
122 137 1
122 141 1
122 171 1
122 187 1
122 194 1
123 128 1
123 134 1
123 150 1
123 151 1
123 178 1
123 183 1
123 185 1
123 187 1
124 128 1
124 129 1
124 156 1
124 163 1
124 175 1
124 182 1
124 185 1
124 192 1
124 198 1
125 128 1
125 137 1
125 171 1
125 176 1
125 190 1
126 133 1
126 139 1
126 143 1
126 148 1
126 151 1
126 176 1
126 179 1
126 189 1
127 147 1
127 148 1
127 151 1
127 163 1
127 173 1
128 136 1
128 139 1
128 152 1
128 155 1
128 164 1
128 174 1
128 178 1
128 188 1
128 189 1
128 190 1
129 142 1
129 144 1
129 145 1
129 150 1
129 153 1
129 159 1
129 162 1
129 163 1
129 165 1
129 189 1
130 139 1
130 140 1
130 146 1
130 156 1
130 164 1
130 178 1
130 185 1
131 142 1
131 157 1
131 165 1
131 171 1
131 188 1
131 189 1
131 191 1
131 199 1
132 133 1
132 136 1
132 139 1
132 162 1
132 177 1
132 184 1
132 185 1
132 186 1
133 137 1
133 157 1
133 177 1
133 193 1
134 144 1
134 145 1
134 166 1
134 170 1
134 176 1
134 186 1
135 139 1
135 144 1
135 147 1
135 148 1
135 149 1
135 169 1
135 175 1
135 177 1
135 197 1
135 198 1
136 150 1
136 161 1
136 163 1
136 190 1
136 191 1
137 140 1
137 152 1
137 154 1
137 155 1
137 163 1
138 142 1
138 146 1
138 167 1
138 169 1
138 172 1
138 181 1
139 143 1
139 148 1
139 151 1
139 155 1
139 163 1
139 175 1
139 185 1
139 189 1
139 196 1
140 142 1
140 168 1
140 181 1
140 199 1
140 200 1
141 173 1
142 146 1
142 150 1
142 165 1
142 167 1
142 168 1
142 181 1
142 187 1
142 195 1
143 157 1
143 195 1
143 197 1
143 198 1
144 157 1
144 159 1
144 166 1
144 169 1
144 172 1
145 151 1
145 153 1
145 158 1
145 164 1
145 170 1
145 172 1
145 181 1
145 185 1
145 188 1
145 194 1
146 167 1
147 156 1
147 168 1
147 171 1
147 189 1
147 190 1
147 197 1
148 152 1
148 153 1
148 160 1
148 164 1
148 182 1
148 186 1
148 194 1
149 150 1
149 166 1
149 168 1
149 185 1
149 187 1
149 192 1
150 161 1
150 162 1
150 168 1
150 169 1
150 178 1
150 186 1
150 196 1
150 198 1
151 158 1
151 162 1
151 182 1
151 189 1
151 191 1
151 192 1
151 199 1
152 167 1
152 168 1
152 182 1
152 184 1
152 185 1
152 187 1
152 196 1
152 200 1
153 172 1
153 180 1
153 192 1
153 200 1
154 184 1
154 190 1
154 194 1
154 199 1
154 200 1
155 170 1
155 179 1
155 182 1
155 189 1
155 196 1
156 169 1
156 180 1
156 185 1
156 196 1
157 186 1
157 189 1
158 169 1
158 170 1
158 179 1
158 191 1
159 160 1
159 161 1
159 175 1
159 185 1
159 192 1
159 194 1
159 195 1
160 167 1
160 173 1
160 175 1
160 185 1
160 196 1
161 166 1
161 194 1
161 196 1
161 200 1
162 194 1
163 170 1
163 183 1
164 166 1
164 185 1
164 199 1
165 170 1
165 172 1
166 177 1
166 187 1
166 190 1
167 168 1
167 174 1
167 184 1
167 185 1
167 198 1
168 173 1
168 199 1
169 172 1
169 179 1
169 180 1
169 196 1
171 176 1
171 186 1
171 194 1
171 199 1
171 200 1
172 177 1
172 198 1
172 200 1
173 189 1
173 194 1
174 197 1
175 180 1
175 197 1
176 180 1
176 182 1
177 189 1
178 188 1
178 197 1
178 198 1
179 187 1
179 195 1
179 200 1
180 195 1
181 182 1
181 186 1
182 185 1
182 190 1
183 195 1
184 197 1
184 198 1
185 193 1
185 195 1
185 198 1
187 189 1
189 200 1
190 196 1
191 200 1
192 193 1
192 196 1
193 194 1
197 199 1
